letting n =  10
letting blocks =  [[1, 2], [1, 3], [1, 4], [1, 5], [1, 8], [1, 10], [2, 2], [2, 5], [2, 6], [2, 7], [2, 8], [3, 1], [3, 2], [3, 3], [3, 6], [3, 7], [3, 8], [4, 3], [4, 6], [4, 7], [4, 8], [4, 9], [4, 10], [5, 1], [5, 2], [5, 4], [5, 5], [5, 7], [5, 8], [6, 3], [6, 4], [6, 9], [6, 10], [7, 1], [7, 4], [7, 5], [7, 6], [7, 10], [8, 1], [8, 3], [8, 4], [8, 5], [8, 7], [8, 10], [9, 1], [9, 3], [9, 4], [9, 5], [9, 7], [9, 9], [10, 1], [10, 2], [10, 6], [10, 8], [10, 9], [10, 10]]
